qe/outputs/qe/qe_queries_wdomain/T=5,eliminate=[I_0,I_1,I_2,I_3,I_4,L_2,L_3,L_4,B].smt2
; benchmark generated from python API
(set-info :status unknown)
(declare-fun S_4 () Real)
(declare-fun A_2 () Real)
(declare-fun L_1 () Real)
(declare-fun C () Real)
(declare-fun S_3 () Real)
(declare-fun S_2 () Real)
(declare-fun L_0 () Real)
(declare-fun A_0 () Real)
(declare-fun A_1 () Real)
(declare-fun A_3 () Real)
(declare-fun A_4 () Real)
(declare-fun S_0 () Real)
(declare-fun S_1 () Real)
(assert
 (let (($x1266 (>= C 5.0)))
 (let ((?x1361 (* (- 1.0) S_1)))
 (let ((?x1456 (* (- 1.0) S_4)))
 (let ((?x787 (* (- 1.0) A_2)))
 (let ((?x1809 (* (- 2.0) L_1)))
 (let (($x2628 (<= (+ (* (- 1.0) L_1) A_3 ?x1456) 0.0)))
 (let (($x1917 (<= (+ (* 2.0 C) (* (- 1.0) L_1) A_1 ?x1456) 0.0)))
 (let (($x685 (<= (+ A_0 (* (- 1.0) L_0) C L_1 (* (- 1.0) A_1)) 0.0)))
 (let (($x539 (<= (+ C (* (- 1.0) L_1) A_2 ?x1456) 0.0)))
 (let (($x17123 (or $x539 $x685 $x1917 $x2628 (<= (+ ?x1809 ?x787 A_1 A_3 C ?x1456 ?x1361 A_0) 0.0))))
 (let ((?x828 (* (- 1.0) A_4)))
 (let ((?x1411 (* (- 3.0) C)))
 (let ((?x1478 (* (- 2.0) A_0)))
 (let (($x7630 (<= (+ (* (- 2.0) C) L_1 (* (- 1.0) A_1) A_3 S_4 ?x828) 0.0)))
 (let ((?x766 (* (- 1.0) L_0)))
 (let ((?x775 (* (- 1.0) L_1)))
 (let (($x1983 (= ?x775 ?x766)))
 (let (($x17597 (or $x1983 $x7630 (<= (+ ?x1478 A_3 ?x1411 L_0 S_4 ?x828 L_1 S_0) 0.0))))
 (let (($x4628 (<= (+ (* 2.0 C) ?x787 (* 2.0 A_0) ?x766 A_3 ?x1456 ?x775 ?x1361) 0.0)))
 (let (($x1436 (<= (+ (* 3.0 C) A_0 ?x766 ?x1456) 0.0)))
 (let (($x683 (not $x685)))
 (let (($x12557 (not (<= 0.0 (+ ?x775 ?x787 A_1 C A_3 ?x1456)))))
 (let (($x7486 (not (<= (+ ?x775 A_1 (* (- 1.0) C) (* (- 1.0) A_0) L_0) 0.0))))
 (let (($x12574 (<= (+ ?x1411 A_2 ?x1478 L_0 (* (- 1.0) A_3) S_4 L_1 S_0) 0.0)))
 (let ((?x796 (* (- 1.0) A_3)))
 (let ((?x778 (* (- 1.0) A_1)))
 (let ((?x1338 (* (- 2.0) C)))
 (let ((?x804 (* (- 1.0) A_0)))
 (let ((?x1915 (* 2.0 L_1)))
 (let (($x12581 (or $x685 $x1983 (<= (+ ?x1915 A_2 ?x778 ?x1338 ?x796 S_4 ?x804 S_0) 0.0))))
 (let (($x17071 (or $x1436 (not (<= (+ (* 2.0 C) A_0 ?x766 L_1 ?x787) 0.0)) $x1917 (<= (+ ?x766 ?x787 A_0 (* 2.0 C) A_3 ?x1456) 0.0) $x12557)))
 (let (($x17275 (or $x539 $x1436 $x1917 $x2628 (<= (+ ?x775 C ?x787 A_1 A_3 ?x1456) 0.0))))
 (let (($x12501 (<= (+ ?x1915 ?x787 (* (- 1.0) C) A_3 S_4 ?x828 ?x804 S_0) 0.0)))
 (let (($x17170 (or $x1983 (<= (+ ?x778 A_0 ?x1915 ?x766 ?x787 S_4 ?x828 A_3) 0.0) $x12501)))
 (let (($x3038 (<= (+ ?x775 A_2 (* (- 1.0) S_3)) 0.0)))
 (let (($x1415 (<= (+ (* 2.0 C) A_0 ?x766 (* (- 1.0) S_3)) 0.0)))
 (let (($x12432 (<= (+ ?x1915 A_2 ?x778 (* (- 1.0) C) ?x796 S_3 ?x804 S_0) 0.0)))
 (let (($x12428 (or $x685 $x1983 (<= (+ ?x1338 ?x1915 ?x778 A_3 S_4 ?x828 ?x804 S_0) 0.0))))
 (let (($x11831 (or $x1983 (<= (+ ?x1338 A_2 ?x1478 L_0 ?x796 S_3 L_1 S_0) 0.0) (<= (+ (* (- 1.0) C) ?x778 L_1 A_2 ?x796 S_3) 0.0))))
 (let (($x17085 (or $x1983 (<= (+ ?x1338 A_2 ?x1478 L_0 S_4 ?x828 L_1 S_0) 0.0) (not (<= (+ ?x1478 L_0 (* (- 1.0) C) S_0 A_1) 0.0)))))
 (let (($x697 (<= (+ ?x1478 L_0 (* (- 1.0) C) S_0 A_1) 0.0)))
 (let (($x17152 (or $x697 $x1983 (<= (+ (* (- 1.0) C) ?x778 L_1 A_2 S_4 ?x828) 0.0))))
 (let (($x1288 (<= 0.0 (+ ?x804 L_1 S_0))))
 (let (($x663 (<= (+ ?x1915 A_2 ?x778 (* (- 1.0) C) S_4 ?x828 ?x804 S_0) 0.0)))
 (let (($x621 (or (<= (+ A_0 ?x766 C (* (- 1.0) S_2)) 0.0) (<= (+ ?x775 A_1 (* (- 1.0) S_2)) 0.0))))
 (let (($x41 (>= A_1 A_0)))
 (let (($x42 (>= A_2 A_1)))
 (let (($x43 (>= A_3 A_2)))
 (let (($x44 (>= A_4 A_3)))
 (and (<= ?x775 ?x766) $x44 $x43 $x42 $x41 (<= S_0 S_1) (<= S_3 S_4) $x621 (or $x663 $x1288 $x1983) $x17152 $x17085 $x11831 (or (<= (+ ?x775 A_1 C (* (- 1.0) S_3)) 0.0) $x685 $x3038) $x12428 (or $x685 $x1983 $x12432) (or $x685 (not $x1288) $x1983) (or $x683 $x1415 (<= (+ ?x1338 ?x804 ?x775 L_0 A_2) 0.0)) (or (not $x1288) $x1983 $x7486) (or $x1415 $x3038 (not (<= (+ (* (- 1.0) C) ?x778 A_2) 0.0))) $x17170 $x17275 $x17071 (or $x539 $x685 $x1917 $x2628 $x12557) $x12581 (or $x1983 (<= (+ ?x1338 ?x778 L_1 A_2 ?x796 S_4) 0.0) $x12574) (or $x539 $x1917 $x2628 $x7486 $x12557) (or $x539 $x683 $x1436 $x2628 $x4628) $x17597 $x17123 $x1266 (<= (+ ?x804 L_0 (* (- 1.0) C) S_1) 0.0) (<= (+ (* (- 4.0) C) ?x804 L_0 S_4) 0.0) (<= (+ L_1 ?x778 S_1) 0.0) (<= (+ ?x804 L_0 S_0) 0.0) (<= (+ L_1 S_4 ?x828) 0.0) (<= (+ L_1 ?x796 S_3) 0.0) (<= (+ ?x1338 ?x804 L_0 S_2) 0.0) (<= (+ L_1 ?x778 (* (- 1.0) C) S_2) 0.0) (<= (+ ?x1338 L_1 ?x778 S_3) 0.0) (<= (+ L_1 ?x796 S_4 (* (- 1.0) C)) 0.0) (<= (+ ?x1411 L_1 ?x778 S_4) 0.0) (<= (+ ?x1411 ?x804 L_0 S_3) 0.0) (<= (+ L_1 ?x787 S_2) 0.0) (<= (+ (* (- 1.0) C) L_1 ?x787 S_3) 0.0) (<= (+ ?x1338 L_1 ?x787 S_4) 0.0))))))))))))))))))))))))))))))))))))))))))))))))))))
(check-sat)
